NAME 
OBJSENSE MAX
ROWS
 N  OBJ
 L  packing[0]
 L  packing[1]
 L  packing[2]
 L  packing[3]
 L  packing[4]
 L  packing[5]
 L  packing[6]
 L  packing[7]
 L  packing[8]
 L  packing[9]
 L  packing[10]
 L  packing[11]
 L  packing[12]
 L  packing[13]
 L  packing[14]
 L  packing[15]
 L  packing[16]
 L  packing[17]
 L  packing[18]
 L  packing[19]
 L  packing[20]
 L  packing[21]
 L  packing[22]
 L  packing[23]
 L  packing[24]
 L  packing[25]
 L  packing[26]
 L  packing[27]
 L  packing[28]
 L  packing[29]
 L  packing[30]
 L  packing[31]
 L  packing[32]
 L  packing[33]
 L  packing[34]
 L  packing[35]
 L  packing[36]
 L  packing[37]
 L  packing[38]
 L  packing[39]
 L  packing[40]
 L  packing[41]
 L  packing[42]
 L  packing[43]
 L  packing[44]
 L  packing[45]
 L  packing[46]
 L  packing[47]
 L  packing[48]
 L  packing[49]
COLUMNS
    MARKER    'MARKER'                 'INTORG'
    x[1]      OBJ       40
    x[1]      packing[0]  79
    x[1]      packing[1]  126
    x[1]      packing[2]  87
    x[1]      packing[3]  144
    x[1]      packing[5]  199
    x[1]      packing[6]  7
    x[1]      packing[7]  178
    x[1]      packing[9]  18
    x[1]      packing[10]  178
    x[1]      packing[11]  79
    x[1]      packing[15]  90
    x[1]      packing[17]  121
    x[1]      packing[18]  99
    x[1]      packing[19]  151
    x[1]      packing[21]  95
    x[1]      packing[22]  177
    x[1]      packing[23]  75
    x[1]      packing[24]  53
    x[1]      packing[25]  34
    x[1]      packing[26]  35
    x[1]      packing[28]  22
    x[1]      packing[29]  178
    x[1]      packing[30]  159
    x[1]      packing[32]  121
    x[1]      packing[34]  14
    x[1]      packing[35]  3
    x[1]      packing[37]  170
    x[1]      packing[39]  13
    x[1]      packing[40]  111
    x[1]      packing[41]  12
    x[1]      packing[42]  58
    x[1]      packing[43]  149
    x[1]      packing[44]  163
    x[1]      packing[46]  137
    x[1]      packing[48]  47
    x[1]      packing[49]  114
    x[2]      OBJ       122
    x[2]      packing[0]  48
    x[2]      packing[1]  28
    x[2]      packing[2]  66
    x[2]      packing[3]  29
    x[2]      packing[4]  70
    x[2]      packing[5]  99
    x[2]      packing[6]  7
    x[2]      packing[7]  115
    x[2]      packing[8]  7
    x[2]      packing[9]  126
    x[2]      packing[10]  31
    x[2]      packing[11]  147
    x[2]      packing[12]  150
    x[2]      packing[13]  152
    x[2]      packing[16]  136
    x[2]      packing[17]  148
    x[2]      packing[18]  106
    x[2]      packing[19]  131
    x[2]      packing[20]  148
    x[2]      packing[21]  167
    x[2]      packing[23]  49
    x[2]      packing[24]  90
    x[2]      packing[26]  177
    x[2]      packing[27]  101
    x[2]      packing[28]  143
    x[2]      packing[29]  144
    x[2]      packing[33]  130
    x[2]      packing[35]  85
    x[2]      packing[36]  139
    x[2]      packing[37]  64
    x[2]      packing[38]  168
    x[2]      packing[39]  52
    x[2]      packing[40]  5
    x[2]      packing[42]  194
    x[2]      packing[43]  79
    x[2]      packing[44]  184
    x[2]      packing[45]  59
    x[2]      packing[46]  96
    x[2]      packing[48]  52
    x[2]      packing[49]  75
    x[3]      OBJ       133
    x[3]      packing[0]  6
    x[3]      packing[1]  6
    x[3]      packing[2]  47
    x[3]      packing[4]  161
    x[3]      packing[5]  73
    x[3]      packing[6]  124
    x[3]      packing[7]  134
    x[3]      packing[8]  158
    x[3]      packing[9]  85
    x[3]      packing[10]  66
    x[3]      packing[12]  23
    x[3]      packing[13]  191
    x[3]      packing[14]  48
    x[3]      packing[19]  119
    x[3]      packing[20]  110
    x[3]      packing[21]  135
    x[3]      packing[23]  71
    x[3]      packing[24]  61
    x[3]      packing[25]  134
    x[3]      packing[26]  105
    x[3]      packing[27]  185
    x[3]      packing[30]  157
    x[3]      packing[31]  159
    x[3]      packing[32]  58
    x[3]      packing[33]  190
    x[3]      packing[34]  140
    x[3]      packing[35]  77
    x[3]      packing[36]  167
    x[3]      packing[39]  98
    x[3]      packing[40]  126
    x[3]      packing[41]  105
    x[3]      packing[43]  8
    x[3]      packing[44]  117
    x[3]      packing[45]  79
    x[3]      packing[46]  125
    x[3]      packing[47]  111
    x[3]      packing[48]  16
    x[3]      packing[49]  52
    x[4]      OBJ       87
    x[4]      packing[0]  62
    x[4]      packing[2]  160
    x[4]      packing[3]  18
    x[4]      packing[4]  137
    x[4]      packing[5]  104
    x[4]      packing[6]  16
    x[4]      packing[7]  24
    x[4]      packing[8]  170
    x[4]      packing[11]  159
    x[4]      packing[12]  9
    x[4]      packing[13]  41
    x[4]      packing[14]  88
    x[4]      packing[15]  88
    x[4]      packing[16]  156
    x[4]      packing[17]  21
    x[4]      packing[19]  107
    x[4]      packing[20]  67
    x[4]      packing[21]  178
    x[4]      packing[22]  172
    x[4]      packing[23]  74
    x[4]      packing[24]  131
    x[4]      packing[26]  164
    x[4]      packing[27]  42
    x[4]      packing[28]  10
    x[4]      packing[30]  192
    x[4]      packing[31]  122
    x[4]      packing[34]  40
    x[4]      packing[35]  2
    x[4]      packing[37]  160
    x[4]      packing[38]  59
    x[4]      packing[39]  88
    x[4]      packing[40]  134
    x[4]      packing[41]  40
    x[4]      packing[42]  33
    x[4]      packing[43]  96
    x[4]      packing[44]  15
    x[4]      packing[45]  25
    x[4]      packing[46]  171
    x[4]      packing[47]  106
    x[4]      packing[49]  132
    x[5]      OBJ       44
    x[5]      packing[1]  163
    x[5]      packing[2]  95
    x[5]      packing[4]  20
    x[5]      packing[5]  162
    x[5]      packing[6]  86
    x[5]      packing[7]  95
    x[5]      packing[8]  107
    x[5]      packing[9]  158
    x[5]      packing[10]  86
    x[5]      packing[11]  15
    x[5]      packing[12]  74
    x[5]      packing[13]  87
    x[5]      packing[15]  115
    x[5]      packing[16]  47
    x[5]      packing[17]  187
    x[5]      packing[18]  133
    x[5]      packing[19]  197
    x[5]      packing[20]  3
    x[5]      packing[21]  4
    x[5]      packing[22]  40
    x[5]      packing[23]  185
    x[5]      packing[25]  110
    x[5]      packing[26]  22
    x[5]      packing[27]  162
    x[5]      packing[29]  198
    x[5]      packing[30]  89
    x[5]      packing[31]  64
    x[5]      packing[33]  83
    x[5]      packing[34]  157
    x[5]      packing[36]  41
    x[5]      packing[37]  177
    x[5]      packing[38]  163
    x[5]      packing[39]  79
    x[5]      packing[41]  78
    x[5]      packing[42]  11
    x[5]      packing[43]  151
    x[5]      packing[44]  3
    x[5]      packing[45]  194
    x[5]      packing[46]  74
    x[5]      packing[48]  46
    x[5]      packing[49]  41
    x[6]      OBJ       132
    x[6]      packing[0]  182
    x[6]      packing[1]  140
    x[6]      packing[2]  131
    x[6]      packing[4]  182
    x[6]      packing[6]  140
    x[6]      packing[7]  143
    x[6]      packing[8]  112
    x[6]      packing[9]  126
    x[6]      packing[10]  159
    x[6]      packing[12]  46
    x[6]      packing[13]  90
    x[6]      packing[15]  76
    x[6]      packing[16]  63
    x[6]      packing[17]  28
    x[6]      packing[18]  71
    x[6]      packing[19]  120
    x[6]      packing[20]  99
    x[6]      packing[21]  28
    x[6]      packing[22]  100
    x[6]      packing[23]  82
    x[6]      packing[24]  188
    x[6]      packing[25]  96
    x[6]      packing[26]  149
    x[6]      packing[27]  114
    x[6]      packing[28]  5
    x[6]      packing[29]  147
    x[6]      packing[30]  183
    x[6]      packing[31]  170
    x[6]      packing[33]  163
    x[6]      packing[34]  109
    x[6]      packing[36]  140
    x[6]      packing[37]  12
    x[6]      packing[38]  43
    x[6]      packing[39]  93
    x[6]      packing[40]  142
    x[6]      packing[43]  57
    x[6]      packing[44]  38
    x[6]      packing[45]  182
    x[6]      packing[46]  131
    x[6]      packing[47]  128
    x[6]      packing[48]  140
    x[6]      packing[49]  58
    x[7]      OBJ       35
    x[7]      packing[0]  157
    x[7]      packing[1]  39
    x[7]      packing[2]  46
    x[7]      packing[3]  146
    x[7]      packing[4]  172
    x[7]      packing[5]  161
    x[7]      packing[6]  103
    x[7]      packing[8]  54
    x[7]      packing[9]  137
    x[7]      packing[11]  150
    x[7]      packing[12]  46
    x[7]      packing[13]  70
    x[7]      packing[14]  154
    x[7]      packing[15]  93
    x[7]      packing[16]  131
    x[7]      packing[17]  90
    x[7]      packing[18]  177
    x[7]      packing[19]  126
    x[7]      packing[20]  134
    x[7]      packing[21]  65
    x[7]      packing[23]  110
    x[7]      packing[24]  98
    x[7]      packing[25]  194
    x[7]      packing[26]  105
    x[7]      packing[27]  127
    x[7]      packing[30]  114
    x[7]      packing[32]  141
    x[7]      packing[33]  152
    x[7]      packing[34]  61
    x[7]      packing[35]  111
    x[7]      packing[36]  130
    x[7]      packing[37]  113
    x[7]      packing[39]  126
    x[7]      packing[40]  29
    x[7]      packing[41]  47
    x[7]      packing[42]  139
    x[7]      packing[43]  51
    x[7]      packing[44]  107
    x[7]      packing[45]  47
    x[7]      packing[46]  36
    x[7]      packing[47]  86
    x[7]      packing[48]  68
    x[7]      packing[49]  17
    x[8]      OBJ       159
    x[8]      packing[0]  97
    x[8]      packing[1]  14
    x[8]      packing[2]  120
    x[8]      packing[3]  75
    x[8]      packing[4]  184
    x[8]      packing[5]  59
    x[8]      packing[6]  135
    x[8]      packing[8]  167
    x[8]      packing[9]  171
    x[8]      packing[10]  130
    x[8]      packing[11]  85
    x[8]      packing[12]  54
    x[8]      packing[13]  45
    x[8]      packing[14]  169
    x[8]      packing[15]  20
    x[8]      packing[16]  129
    x[8]      packing[17]  96
    x[8]      packing[21]  56
    x[8]      packing[22]  97
    x[8]      packing[23]  166
    x[8]      packing[25]  113
    x[8]      packing[28]  184
    x[8]      packing[29]  154
    x[8]      packing[30]  1
    x[8]      packing[31]  33
    x[8]      packing[32]  98
    x[8]      packing[33]  110
    x[8]      packing[34]  138
    x[8]      packing[35]  16
    x[8]      packing[37]  145
    x[8]      packing[38]  103
    x[8]      packing[39]  71
    x[8]      packing[40]  38
    x[8]      packing[42]  17
    x[8]      packing[44]  90
    x[8]      packing[45]  93
    x[8]      packing[46]  106
    x[8]      packing[47]  119
    x[8]      packing[48]  122
    x[8]      packing[49]  97
    x[9]      OBJ       9
    x[9]      packing[0]  163
    x[9]      packing[1]  76
    x[9]      packing[2]  150
    x[9]      packing[3]  31
    x[9]      packing[4]  49
    x[9]      packing[5]  174
    x[9]      packing[6]  64
    x[9]      packing[7]  113
    x[9]      packing[8]  62
    x[9]      packing[13]  22
    x[9]      packing[14]  54
    x[9]      packing[15]  96
    x[9]      packing[16]  90
    x[9]      packing[17]  164
    x[9]      packing[18]  124
    x[9]      packing[20]  119
    x[9]      packing[21]  35
    x[9]      packing[22]  84
    x[9]      packing[23]  163
    x[9]      packing[24]  153
    x[9]      packing[25]  135
    x[9]      packing[26]  186
    x[9]      packing[27]  3
    x[9]      packing[29]  189
    x[9]      packing[30]  68
    x[9]      packing[32]  46
    x[9]      packing[33]  147
    x[9]      packing[36]  56
    x[9]      packing[37]  66
    x[9]      packing[38]  140
    x[9]      packing[39]  13
    x[9]      packing[41]  187
    x[9]      packing[43]  82
    x[9]      packing[44]  178
    x[9]      packing[45]  59
    x[9]      packing[46]  4
    x[9]      packing[47]  16
    x[9]      packing[48]  12
    x[9]      packing[49]  184
    x[10]     OBJ       128
    x[10]     packing[0]  78
    x[10]     packing[1]  153
    x[10]     packing[2]  51
    x[10]     packing[4]  51
    x[10]     packing[5]  165
    x[10]     packing[6]  91
    x[10]     packing[7]  23
    x[10]     packing[8]  41
    x[10]     packing[11]  124
    x[10]     packing[12]  26
    x[10]     packing[13]  119
    x[10]     packing[14]  181
    x[10]     packing[18]  127
    x[10]     packing[19]  126
    x[10]     packing[20]  172
    x[10]     packing[21]  172
    x[10]     packing[22]  68
    x[10]     packing[23]  2
    x[10]     packing[24]  159
    x[10]     packing[25]  80
    x[10]     packing[26]  26
    x[10]     packing[27]  6
    x[10]     packing[28]  161
    x[10]     packing[29]  134
    x[10]     packing[30]  12
    x[10]     packing[32]  171
    x[10]     packing[33]  102
    x[10]     packing[36]  147
    x[10]     packing[39]  2
    x[10]     packing[40]  51
    x[10]     packing[42]  199
    x[10]     packing[45]  182
    x[10]     packing[46]  126
    x[10]     packing[47]  117
    x[10]     packing[48]  57
    x[10]     packing[49]  58
    x[11]     OBJ       87
    x[11]     packing[0]  57
    x[11]     packing[1]  197
    x[11]     packing[2]  140
    x[11]     packing[4]  134
    x[11]     packing[5]  38
    x[11]     packing[6]  161
    x[11]     packing[7]  9
    x[11]     packing[8]  120
    x[11]     packing[10]  15
    x[11]     packing[12]  95
    x[11]     packing[13]  67
    x[11]     packing[14]  15
    x[11]     packing[15]  198
    x[11]     packing[16]  158
    x[11]     packing[17]  125
    x[11]     packing[19]  115
    x[11]     packing[20]  110
    x[11]     packing[21]  75
    x[11]     packing[22]  157
    x[11]     packing[23]  168
    x[11]     packing[24]  64
    x[11]     packing[25]  131
    x[11]     packing[26]  176
    x[11]     packing[28]  108
    x[11]     packing[29]  39
    x[11]     packing[32]  152
    x[11]     packing[33]  195
    x[11]     packing[35]  101
    x[11]     packing[36]  135
    x[11]     packing[37]  94
    x[11]     packing[41]  86
    x[11]     packing[42]  104
    x[11]     packing[43]  85
    x[11]     packing[44]  191
    x[11]     packing[45]  150
    x[11]     packing[47]  21
    x[11]     packing[48]  156
    x[11]     packing[49]  135
    x[12]     OBJ       111
    x[12]     packing[0]  116
    x[12]     packing[2]  170
    x[12]     packing[4]  133
    x[12]     packing[5]  91
    x[12]     packing[6]  127
    x[12]     packing[7]  182
    x[12]     packing[8]  8
    x[12]     packing[9]  82
    x[12]     packing[10]  198
    x[12]     packing[12]  122
    x[12]     packing[13]  6
    x[12]     packing[14]  35
    x[12]     packing[15]  121
    x[12]     packing[16]  119
    x[12]     packing[18]  118
    x[12]     packing[19]  10
    x[12]     packing[20]  99
    x[12]     packing[22]  140
    x[12]     packing[23]  6
    x[12]     packing[25]  90
    x[12]     packing[26]  156
    x[12]     packing[28]  36
    x[12]     packing[30]  129
    x[12]     packing[31]  63
    x[12]     packing[32]  138
    x[12]     packing[33]  12
    x[12]     packing[34]  93
    x[12]     packing[35]  103
    x[12]     packing[36]  197
    x[12]     packing[37]  93
    x[12]     packing[38]  133
    x[12]     packing[39]  24
    x[12]     packing[40]  170
    x[12]     packing[41]  86
    x[12]     packing[42]  173
    x[12]     packing[43]  12
    x[12]     packing[44]  83
    x[12]     packing[45]  117
    x[12]     packing[46]  129
    x[12]     packing[47]  52
    x[12]     packing[49]  33
    x[13]     OBJ       37
    x[13]     packing[4]  68
    x[13]     packing[5]  156
    x[13]     packing[6]  107
    x[13]     packing[7]  88
    x[13]     packing[9]  87
    x[13]     packing[11]  154
    x[13]     packing[12]  170
    x[13]     packing[13]  154
    x[13]     packing[14]  31
    x[13]     packing[15]  156
    x[13]     packing[16]  75
    x[13]     packing[17]  158
    x[13]     packing[19]  167
    x[13]     packing[21]  25
    x[13]     packing[23]  170
    x[13]     packing[24]  105
    x[13]     packing[25]  164
    x[13]     packing[27]  117
    x[13]     packing[28]  52
    x[13]     packing[29]  19
    x[13]     packing[30]  193
    x[13]     packing[32]  114
    x[13]     packing[33]  103
    x[13]     packing[34]  165
    x[13]     packing[37]  85
    x[13]     packing[38]  37
    x[13]     packing[39]  181
    x[13]     packing[40]  131
    x[13]     packing[42]  194
    x[13]     packing[43]  31
    x[13]     packing[44]  140
    x[13]     packing[47]  19
    x[13]     packing[49]  27
    x[14]     OBJ       28
    x[14]     packing[0]  31
    x[14]     packing[1]  141
    x[14]     packing[2]  78
    x[14]     packing[3]  52
    x[14]     packing[5]  8
    x[14]     packing[6]  17
    x[14]     packing[7]  40
    x[14]     packing[8]  100
    x[14]     packing[9]  167
    x[14]     packing[10]  29
    x[14]     packing[11]  66
    x[14]     packing[12]  95
    x[14]     packing[13]  66
    x[14]     packing[14]  20
    x[14]     packing[18]  69
    x[14]     packing[20]  118
    x[14]     packing[21]  6
    x[14]     packing[22]  18
    x[14]     packing[24]  198
    x[14]     packing[25]  9
    x[14]     packing[26]  70
    x[14]     packing[28]  107
    x[14]     packing[30]  181
    x[14]     packing[32]  11
    x[14]     packing[33]  4
    x[14]     packing[36]  125
    x[14]     packing[37]  112
    x[14]     packing[38]  133
    x[14]     packing[39]  49
    x[14]     packing[40]  132
    x[14]     packing[41]  180
    x[14]     packing[45]  91
    x[14]     packing[46]  53
    x[14]     packing[47]  161
    x[14]     packing[48]  62
    x[14]     packing[49]  78
    x[15]     OBJ       194
    x[15]     packing[0]  151
    x[15]     packing[5]  31
    x[15]     packing[7]  135
    x[15]     packing[8]  2
    x[15]     packing[9]  172
    x[15]     packing[10]  66
    x[15]     packing[12]  177
    x[15]     packing[13]  69
    x[15]     packing[15]  66
    x[15]     packing[16]  164
    x[15]     packing[18]  98
    x[15]     packing[19]  30
    x[15]     packing[21]  150
    x[15]     packing[23]  9
    x[15]     packing[24]  46
    x[15]     packing[25]  186
    x[15]     packing[26]  21
    x[15]     packing[27]  80
    x[15]     packing[28]  34
    x[15]     packing[31]  166
    x[15]     packing[33]  186
    x[15]     packing[37]  137
    x[15]     packing[38]  78
    x[15]     packing[40]  6
    x[15]     packing[42]  117
    x[15]     packing[43]  100
    x[15]     packing[44]  150
    x[15]     packing[49]  38
    x[16]     OBJ       129
    x[16]     packing[0]  180
    x[16]     packing[2]  51
    x[16]     packing[3]  119
    x[16]     packing[6]  46
    x[16]     packing[7]  140
    x[16]     packing[8]  197
    x[16]     packing[9]  4
    x[16]     packing[11]  198
    x[16]     packing[12]  7
    x[16]     packing[13]  128
    x[16]     packing[14]  152
    x[16]     packing[16]  48
    x[16]     packing[17]  124
    x[16]     packing[18]  6
    x[16]     packing[19]  1
    x[16]     packing[21]  36
    x[16]     packing[22]  47
    x[16]     packing[23]  55
    x[16]     packing[24]  109
    x[16]     packing[26]  99
    x[16]     packing[27]  89
    x[16]     packing[29]  42
    x[16]     packing[32]  63
    x[16]     packing[33]  131
    x[16]     packing[34]  164
    x[16]     packing[36]  44
    x[16]     packing[39]  106
    x[16]     packing[41]  87
    x[16]     packing[42]  120
    x[16]     packing[43]  86
    x[16]     packing[44]  156
    x[16]     packing[45]  10
    x[16]     packing[47]  105
    x[16]     packing[48]  94
    x[17]     OBJ       78
    x[17]     packing[0]  196
    x[17]     packing[2]  118
    x[17]     packing[3]  46
    x[17]     packing[4]  110
    x[17]     packing[5]  198
    x[17]     packing[6]  34
    x[17]     packing[7]  111
    x[17]     packing[8]  161
    x[17]     packing[9]  174
    x[17]     packing[10]  178
    x[17]     packing[11]  132
    x[17]     packing[12]  153
    x[17]     packing[14]  81
    x[17]     packing[15]  184
    x[17]     packing[16]  140
    x[17]     packing[17]  141
    x[17]     packing[19]  61
    x[17]     packing[20]  59
    x[17]     packing[22]  152
    x[17]     packing[23]  31
    x[17]     packing[24]  76
    x[17]     packing[26]  57
    x[17]     packing[27]  163
    x[17]     packing[28]  39
    x[17]     packing[29]  58
    x[17]     packing[30]  21
    x[17]     packing[33]  199
    x[17]     packing[34]  79
    x[17]     packing[35]  115
    x[17]     packing[36]  189
    x[17]     packing[37]  177
    x[17]     packing[38]  131
    x[17]     packing[39]  157
    x[17]     packing[40]  62
    x[17]     packing[41]  131
    x[17]     packing[42]  18
    x[17]     packing[43]  167
    x[17]     packing[44]  132
    x[17]     packing[45]  80
    x[17]     packing[46]  72
    x[17]     packing[47]  71
    x[18]     OBJ       58
    x[18]     packing[1]  104
    x[18]     packing[2]  77
    x[18]     packing[3]  15
    x[18]     packing[5]  137
    x[18]     packing[6]  17
    x[18]     packing[8]  146
    x[18]     packing[9]  143
    x[18]     packing[11]  135
    x[18]     packing[13]  140
    x[18]     packing[14]  180
    x[18]     packing[15]  196
    x[18]     packing[17]  124
    x[18]     packing[18]  182
    x[18]     packing[19]  165
    x[18]     packing[20]  81
    x[18]     packing[21]  157
    x[18]     packing[22]  21
    x[18]     packing[23]  25
    x[18]     packing[24]  154
    x[18]     packing[25]  52
    x[18]     packing[26]  127
    x[18]     packing[27]  88
    x[18]     packing[29]  94
    x[18]     packing[31]  53
    x[18]     packing[32]  82
    x[18]     packing[33]  94
    x[18]     packing[35]  7
    x[18]     packing[36]  174
    x[18]     packing[38]  53
    x[18]     packing[39]  23
    x[18]     packing[40]  96
    x[18]     packing[42]  39
    x[18]     packing[43]  125
    x[18]     packing[44]  81
    x[18]     packing[45]  44
    x[18]     packing[46]  66
    x[18]     packing[48]  56
    x[18]     packing[49]  95
    x[19]     OBJ       157
    x[19]     packing[0]  180
    x[19]     packing[1]  48
    x[19]     packing[2]  6
    x[19]     packing[3]  120
    x[19]     packing[5]  83
    x[19]     packing[6]  1
    x[19]     packing[7]  104
    x[19]     packing[9]  83
    x[19]     packing[10]  16
    x[19]     packing[11]  27
    x[19]     packing[14]  147
    x[19]     packing[15]  103
    x[19]     packing[16]  2
    x[19]     packing[17]  131
    x[19]     packing[18]  197
    x[19]     packing[20]  144
    x[19]     packing[21]  44
    x[19]     packing[24]  113
    x[19]     packing[25]  194
    x[19]     packing[26]  184
    x[19]     packing[28]  126
    x[19]     packing[30]  22
    x[19]     packing[31]  87
    x[19]     packing[33]  46
    x[19]     packing[34]  84
    x[19]     packing[35]  135
    x[19]     packing[37]  93
    x[19]     packing[38]  135
    x[19]     packing[39]  170
    x[19]     packing[40]  27
    x[19]     packing[41]  6
    x[19]     packing[44]  149
    x[19]     packing[46]  144
    x[19]     packing[49]  134
    x[20]     OBJ       58
    x[20]     packing[0]  28
    x[20]     packing[1]  140
    x[20]     packing[2]  122
    x[20]     packing[3]  126
    x[20]     packing[4]  162
    x[20]     packing[5]  148
    x[20]     packing[7]  117
    x[20]     packing[9]  8
    x[20]     packing[11]  4
    x[20]     packing[12]  118
    x[20]     packing[13]  158
    x[20]     packing[14]  62
    x[20]     packing[15]  114
    x[20]     packing[17]  24
    x[20]     packing[19]  198
    x[20]     packing[21]  25
    x[20]     packing[23]  161
    x[20]     packing[24]  193
    x[20]     packing[25]  125
    x[20]     packing[26]  138
    x[20]     packing[27]  65
    x[20]     packing[29]  5
    x[20]     packing[30]  30
    x[20]     packing[33]  54
    x[20]     packing[34]  88
    x[20]     packing[36]  169
    x[20]     packing[37]  41
    x[20]     packing[38]  154
    x[20]     packing[40]  35
    x[20]     packing[41]  30
    x[20]     packing[42]  152
    x[20]     packing[43]  132
    x[20]     packing[44]  1
    x[20]     packing[45]  76
    x[20]     packing[46]  63
    x[20]     packing[48]  49
    x[20]     packing[49]  53
    MARKER    'MARKER'                 'INTEND'
RHS
    RHS1      packing[0]  906
    RHS1      packing[1]  688
    RHS1      packing[2]  858
    RHS1      packing[3]  461
    RHS1      packing[4]  817
    RHS1      packing[5]  1043
    RHS1      packing[6]  642
    RHS1      packing[7]  876
    RHS1      packing[8]  806
    RHS1      packing[9]  871
    RHS1      packing[10]  576
    RHS1      packing[11]  738
    RHS1      packing[12]  683
    RHS1      packing[13]  803
    RHS1      packing[14]  709
    RHS1      packing[15]  858
    RHS1      packing[16]  729
    RHS1      packing[17]  841
    RHS1      packing[18]  754
    RHS1      packing[19]  912
    RHS1      packing[20]  732
    RHS1      packing[21]  727
    RHS1      packing[22]  637
    RHS1      packing[23]  801
    RHS1      packing[24]  996
    RHS1      packing[25]  924
    RHS1      packing[26]  999
    RHS1      packing[27]  671
    RHS1      packing[28]  514
    RHS1      packing[29]  701
    RHS1      packing[30]  776
    RHS1      packing[31]  459
    RHS1      packing[32]  598
    RHS1      packing[33]  1051
    RHS1      packing[34]  666
    RHS1      packing[35]  378
    RHS1      packing[36]  927
    RHS1      packing[37]  870
    RHS1      packing[38]  765
    RHS1      packing[39]  673
    RHS1      packing[40]  648
    RHS1      packing[41]  538
    RHS1      packing[42]  784
    RHS1      packing[43]  706
    RHS1      packing[44]  989
    RHS1      packing[45]  744
    RHS1      packing[46]  767
    RHS1      packing[47]  556
    RHS1      packing[48]  489
    RHS1      packing[49]  711
BOUNDS
 BV BND1      x[1]    
 BV BND1      x[2]    
 BV BND1      x[3]    
 BV BND1      x[4]    
 BV BND1      x[5]    
 BV BND1      x[6]    
 BV BND1      x[7]    
 BV BND1      x[8]    
 BV BND1      x[9]    
 BV BND1      x[10]   
 BV BND1      x[11]   
 BV BND1      x[12]   
 BV BND1      x[13]   
 BV BND1      x[14]   
 BV BND1      x[15]   
 BV BND1      x[16]   
 BV BND1      x[17]   
 BV BND1      x[18]   
 BV BND1      x[19]   
 BV BND1      x[20]   
ENDATA
